30 1493
106 4 94
82 2 100
84 6 90
77 54 36
87 4 93
104 54 54
115 93 8
104 63 29
112 18 76
106 90 9
84 44 52
88 34 63
103 74 17
107 62 43
124 100 8
111 14 78
107 95 6
72 48 44
108 15 77
97 72 32
72 78 14
99 87 7
121 62 41
92 40 58
109 85 19
91 80 19
119 82 26
107 53 43
102 24 69
96 26 68
